Version identifier: 22.1.0.0 | 2022-03-09 | 1a383f8ce
CPXPARAM_Threads                                 1
CPXPARAM_MIP_Strategy_VariableSelect             3
CPXPARAM_TimeLimit                               599.99998360799998
1 of 1 MIP starts provided solutions.
MIP start 'm1' defined initial solution with objective 3.0000.
Tried aggregator 2 times.
MIP Presolve eliminated 37 rows and 1 columns.
MIP Presolve added 32 rows and 8 columns.
MIP Presolve modified 73 coefficients.
Aggregator did 8 substitutions.
Reduced MIP has 1212 rows, 5000 columns, and 72772 nonzeros.
Reduced MIP has 5000 binaries, 0 generals, 0 SOSs, and 0 indicators.
Presolve time = 0.10 sec. (128.33 ticks)
Probing time = 0.02 sec. (15.05 ticks)
Tried aggregator 1 time.
Detecting symmetries...
MIP Presolve modified 14 coefficients.
Reduced MIP has 1212 rows, 5000 columns, and 73148 nonzeros.
Reduced MIP has 5000 binaries, 0 generals, 0 SOSs, and 0 indicators.
Presolve time = 0.07 sec. (84.04 ticks)
Probing time = 0.02 sec. (15.09 ticks)
Clique table members: 796.
MIP emphasis: balance optimality and feasibility.
MIP search method: dynamic search.
Parallel mode: none, using 1 thread.
Root relaxation solution time = 1.02 sec. (1172.37 ticks)

        Nodes                                         Cuts/
   Node  Left     Objective  IInf  Best Integer    Best Bound    ItCnt     Gap

*     0+    0                            3.0000    20100.0000              --- 
      0     0      200.0000   874        3.0000      200.0000     4166     --- 
      0     0      200.0000   474        3.0000       Cuts: 3     4572     --- 
      0     0      200.0000   603        3.0000      Cuts: 60     8839     --- 
      0     0      200.0000   402        3.0000       Cuts: 7    11680     --- 
*     0+    0                           93.0000      200.0000           115.05%
*     0+    0                          146.0000      200.0000            36.99%
*     0+    0                          176.0000      200.0000            13.64%
*     0+    0                          185.0000      200.0000             8.11%
      0     0        cutoff            185.0000      200.0000    11680    8.11%
      0     0      200.0000   468      185.0000   ZeroHalf: 3    14701    8.11%
*     0+    0                          187.0000      200.0000             6.95%
Detecting symmetries...
      0     2      200.0000   442      187.0000      200.0000    14701    6.95%
Elapsed time = 31.76 sec. (36151.86 ticks, tree = 0.01 MB, solutions = 6)
      2     2      200.0000   471      187.0000      200.0000    19015    6.95%
      3     3      200.0000   454      187.0000      200.0000    19451    6.95%
      4     4      200.0000   459      187.0000      200.0000    19629    6.95%
      5     5      200.0000   542      187.0000      200.0000    27358    6.95%
      6     6      200.0000   538      187.0000      200.0000    36558    6.95%
      7     7      200.0000   543      187.0000      200.0000    42969    6.95%
      8     8      200.0000   515      187.0000      200.0000    43732    6.95%
      9     9      200.0000   497      187.0000      200.0000    49436    6.95%
     10     9      199.0000   809      187.0000      200.0000    55175    6.95%
     11    10      200.0000   460      187.0000      200.0000    61390    6.95%
Elapsed time = 45.48 sec. (51487.83 ticks, tree = 0.04 MB, solutions = 6)
     14    11      200.0000   473      187.0000      200.0000    65213    6.95%
     17    14      200.0000   462      187.0000      200.0000    73070    6.95%
     19    15      199.8966   670      187.0000      200.0000    82617    6.95%
     20    15      199.0000   773      187.0000      200.0000    90540    6.95%
     23    18      200.0000   542      187.0000      200.0000    92861    6.95%
     26    21      200.0000   578      187.0000      200.0000    94911    6.95%
     29    24      200.0000   558      187.0000      200.0000    99178    6.95%
     30    25      200.0000   552      187.0000      200.0000    99199    6.95%
     33    27      200.0000   429      187.0000      200.0000   109338    6.95%
     34    28      200.0000   419      187.0000      200.0000   114039    6.95%
Elapsed time = 61.80 sec. (68697.71 ticks, tree = 0.08 MB, solutions = 6)
     36    29      200.0000   427      187.0000      200.0000   118625    6.95%
     39    32      200.0000   497      187.0000      200.0000   120147    6.95%
     43    36      200.0000   524      187.0000      200.0000   124371    6.95%
     47    39      200.0000   490      187.0000      200.0000   125987    6.95%
     50    42      200.0000   393      187.0000      200.0000   127772    6.95%
     53    44      200.0000   432      187.0000      200.0000   133872    6.95%
     57    48      200.0000   413      187.0000      200.0000   135768    6.95%
     60    51      200.0000   396      187.0000      200.0000   136728    6.95%
     65    54      200.0000   364      187.0000      200.0000   138191    6.95%
     70    58      200.0000   337      187.0000      200.0000   140606    6.95%
Elapsed time = 72.13 sec. (79942.64 ticks, tree = 0.14 MB, solutions = 6)
     73    60      200.0000   258      187.0000      200.0000   144333    6.95%
     78    64      200.0000   269      187.0000      200.0000   146711    6.95%
     83    68      200.0000   265      187.0000      200.0000   148855    6.95%
     88    71      200.0000   262      187.0000      200.0000   151399    6.95%
     94    76      200.0000   245      187.0000      200.0000   154448    6.95%
    100    79      199.0000   240      187.0000      200.0000   157788    6.95%
    105    83      200.0000   225      187.0000      200.0000   160244    6.95%
    110    85      198.0000   281      187.0000      200.0000   162543    6.95%
    117    90      198.0000   240      187.0000      200.0000   164850    6.95%
    127    96      197.0000   238      187.0000      200.0000   168134    6.95%
Elapsed time = 82.88 sec. (90969.23 ticks, tree = 0.22 MB, solutions = 6)
    137   103      196.0000   219      187.0000      200.0000   169977    6.95%
    145   109      195.0000   157      187.0000      200.0000   171656    6.95%
    156   111      199.0000   273      187.0000      200.0000   177791    6.95%
    162   115      199.0000   247      187.0000      200.0000   179630    6.95%
    169   120      199.0000   257      187.0000      200.0000   181842    6.95%
    173   121      198.0000   266      187.0000      200.0000   186782    6.95%
    180   124      198.0000   311      187.0000      200.0000   188155    6.95%
    189   130      198.0000   263      187.0000      200.0000   190455    6.95%
    196   134      198.0000   269      187.0000      200.0000   191735    6.95%
    205   141      198.0000   237      187.0000      200.0000   193623    6.95%
Elapsed time = 94.20 sec. (102006.39 ticks, tree = 0.32 MB, solutions = 6)
    213   144      196.9028   264      187.0000      200.0000   195958    6.95%
    225   151      195.0000   234      187.0000      200.0000   197866    6.95%
    237   157      194.0000   206      187.0000      200.0000   199254    6.95%
    249   169      194.0000   170      187.0000      200.0000   199998    6.95%
    266   177      194.0000   179      187.0000      200.0000   201025    6.95%
    282   184      194.0000   119      187.0000      200.0000   201735    6.95%
    289   185      199.0000   330      187.0000      200.0000   204264    6.95%
    294   188      197.0000   324      187.0000      200.0000   206286    6.95%
    302   193      196.0000   214      187.0000      200.0000   208201    6.95%
    312   198      194.0000   241      187.0000      200.0000   210056    6.95%
Elapsed time = 104.66 sec. (112061.32 ticks, tree = 0.45 MB, solutions = 6)
    327   203      193.0000   170      187.0000      200.0000   211608    6.95%
    335   205      198.0000   324      187.0000      200.0000   214592    6.95%
    340   208      197.0000   260      187.0000      200.0000   216334    6.95%
    350   214      194.0000   237      187.0000      200.0000   218763    6.95%
    364   216      199.1639   356      187.0000      200.0000   221387    6.95%
    369   221      199.0000   322      187.0000      200.0000   223248    6.95%
    373   223      198.0000   289      187.0000      200.0000   226403    6.95%
    380   226      197.0000   219      187.0000      200.0000   228066    6.95%
    389   232      196.0000   234      187.0000      200.0000   229895    6.95%
    399   236      194.0000   190      187.0000      200.0000   231986    6.95%
Elapsed time = 115.57 sec. (122661.28 ticks, tree = 0.53 MB, solutions = 6)
    415   243      193.0000   188      187.0000      200.0000   233625    6.95%
    429   253      193.0000   142      187.0000      200.0000   234642    6.95%
    444   264      193.0000   115      187.0000      200.0000   235439    6.95%
    466   269      193.0000    81      187.0000      200.0000   236481    6.95%
    479   269      199.0000   283      187.0000      200.0000   239406    6.95%
    485   271      198.9000   290      187.0000      200.0000   242244    6.95%
    490   274      198.0000   336      187.0000      200.0000   244072    6.95%
    497   279      198.0000   308      187.0000      200.0000   246454    6.95%
    505   284      199.0000   301      187.0000      200.0000   249137    6.95%
    512   289      199.0000   300      187.0000      200.0000   251368    6.95%
Elapsed time = 125.98 sec. (132786.38 ticks, tree = 0.66 MB, solutions = 6)
    520   294      198.0000   322      187.0000      200.0000   254111    6.95%
    529   301      197.0000   228      187.0000      200.0000   256840    6.95%
    545   309      194.0000   204      187.0000      200.0000   258914    6.95%
    560   318      194.0000   213      187.0000      200.0000   260118    6.95%
    572   328      194.0000   152      187.0000      200.0000   260835    6.95%
    588   332      194.0000   175      187.0000      200.0000   261607    6.95%
    601   343      194.0000   155      187.0000      200.0000   262360    6.95%
    608   344      199.0000   316      187.0000      200.0000   264935    6.95%
    615   349      198.0000   312      187.0000      200.0000   267110    6.95%
    621   353      198.0000   299      187.0000      200.0000   268344    6.95%
Elapsed time = 136.46 sec. (142902.75 ticks, tree = 0.80 MB, solutions = 6)
    630   357      196.0000   307      187.0000      200.0000   270239    6.95%
    639   363      196.0000   234      187.0000      200.0000   272711    6.95%
    654   366      194.0000   270      187.0000      200.0000   274466    6.95%
    673   367    infeasible            187.0000      200.0000   276563    6.95%
    691   369      193.0000   210      187.0000      200.0000   278530    6.95%
    699   369      198.0000   400      187.0000      200.0000   281866    6.95%
    705   374      197.0000   236      187.0000      200.0000   284329    6.95%
    712   380      197.0000   260      187.0000      200.0000   285246    6.95%
    721   385      195.0000   259      187.0000      200.0000   287287    6.95%
    762   402      197.0000   291      187.0000      200.0000   294244    6.95%
Elapsed time = 149.73 sec. (155901.51 ticks, tree = 0.91 MB, solutions = 6)
    792   416      198.8864   285      187.0000      200.0000   302710    6.95%
    819   436      194.0000   283      187.0000      200.0000   310123    6.95%
    870   453      193.0000   173      187.0000      200.0000   313997    6.95%
    897   467      199.0000   321      187.0000      200.0000   322681    6.95%
    924   482      198.0000   355      187.0000      200.0000   331282    6.95%
    965   507      194.0000   183      187.0000      200.0000   336743    6.95%
   1018   529  -1.00000e+75   121      187.0000      200.0000   341758    6.95%
   1072   544      200.0000   334      187.0000      200.0000   347870    6.95%
   1093   560      198.0000   345      187.0000      200.0000   355359    6.95%
   1139   587      193.0000   143      187.0000      200.0000   362068    6.95%
Elapsed time = 189.35 sec. (194775.52 ticks, tree = 1.33 MB, solutions = 6)
   1170   599      198.0000   349      187.0000      200.0000   369943    6.95%
   1205   622    infeasible            187.0000      200.0000   377370    6.95%
   1273   645      200.0000   288      187.0000      200.0000   382335    6.95%
   1295   656    infeasible            187.0000      200.0000   390085    6.95%
   1330   660      199.0000   395      187.0000      200.0000   400597    6.95%
   1352   669      199.0000   339      187.0000      200.0000   409145    6.95%
   1374   680      198.0000   312      187.0000      200.0000   418016    6.95%
   1414   711      194.0000   174      187.0000      200.0000   424515    6.95%
   1478   743      188.0000    92      187.0000      200.0000   429537    6.95%
   1503   755      196.0000   297      187.0000      200.0000   438478    6.95%
Elapsed time = 228.78 sec. (233577.87 ticks, tree = 1.70 MB, solutions = 6)
*  1534+  766                          188.0000      200.0000             6.38%
*  1535+  756                          190.0000      200.0000             5.26%
   1535   757      199.0000   382      190.0000      200.0000   443994    5.26%
   1536   758      200.0000   330      190.0000      200.0000   444383    5.26%
   1560   774      196.0000   324      190.0000      200.0000   450611    5.26%
   1611   801      192.0000   157      190.0000      200.0000   456795    5.26%

Performing restart 1

Repeating presolve.
Tried aggregator 1 time.
MIP Presolve eliminated 0 rows and 191 columns.
MIP Presolve modified 13902 coefficients.
Reduced MIP has 1212 rows, 4809 columns, and 48517 nonzeros.
Reduced MIP has 4809 binaries, 0 generals, 0 SOSs, and 0 indicators.
Presolve time = 0.04 sec. (38.72 ticks)
Tried aggregator 1 time.
MIP Presolve eliminated 0 rows and 368 columns.
Reduced MIP has 1212 rows, 4441 columns, and 43211 nonzeros.
Reduced MIP has 4441 binaries, 0 generals, 0 SOSs, and 0 indicators.
Presolve time = 0.03 sec. (21.36 ticks)
Tried aggregator 1 time.
Reduced MIP has 1212 rows, 4441 columns, and 43211 nonzeros.
Reduced MIP has 4441 binaries, 0 generals, 0 SOSs, and 0 indicators.
Presolve time = 0.03 sec. (25.23 ticks)
Represolve time = 0.42 sec. (261.12 ticks)
   1645     0      199.0000   603      190.0000      Cuts: 12   475414    4.74%
   1645     0      199.0000   652      190.0000     Cuts: 164   478706    4.74%
   1645     0      199.0000   331      190.0000       Cuts: 8   480087    4.74%
   1645     0      199.0000   535      190.0000     Cuts: 119   483300    4.74%
   1645     0      199.0000   484      190.0000      Cuts: 21   485843    4.74%
   1645     0      199.0000   559      190.0000     Cuts: 205   489555    4.74%
   1645     2      199.0000   176      190.0000      199.0000   489555    4.74%
   1649     6      199.0000   422      190.0000      199.0000   502657    4.74%
   1656    12      199.0000   393      190.0000      199.0000   521042    4.74%
   1665    21      199.0000   400      190.0000      199.0000   533989    4.74%
   1671    26      199.0000   391      190.0000      199.0000   549461    4.74%
   1676    31      199.0000   406      190.0000      199.0000   562682    4.74%
Elapsed time = 324.82 sec. (325952.08 ticks, tree = 0.24 MB, solutions = 8)
   1684    39      198.7818   392      190.0000      199.0000   578976    4.74%
   1692    45      199.0000   345      190.0000      199.0000   597530    4.74%
   1696    48      199.0000   362      190.0000      199.0000   612389    4.74%
   1707    57      199.0000   206      190.0000      199.0000   631593    4.74%
   1715    56        cutoff            190.0000      199.0000   652384    4.74%
   1731    66      197.0000   242      190.0000      199.0000   663386    4.74%
   1744    76      197.0000   236      190.0000      199.0000   677217    4.74%
   1756    85      197.0000   223      190.0000      199.0000   694095    4.74%
   1768    90      196.0000   230      190.0000      199.0000   716197    4.74%
   1785   104      196.0000   236      190.0000      199.0000   730491    4.74%
Elapsed time = 367.18 sec. (366122.08 ticks, tree = 1.05 MB, solutions = 8)
   1804   111      195.0000   265      190.0000      199.0000   751135    4.74%
   1832   111        cutoff            190.0000      199.0000   768997    4.74%
   1855   120      195.0000   265      190.0000      199.0000   784241    4.74%
   1879   130      195.0000   219      190.0000      199.0000   805899    4.74%
   1903   135      194.0000   220      190.0000      199.0000   831789    4.74%
   1933   142    infeasible            190.0000      199.0000   855347    4.74%
   1971   149      199.0000   337      190.0000      199.0000   878761    4.74%
   1978   153      199.0000   364      190.0000      199.0000   896103    4.74%
   1987   162      199.0000   284      190.0000      199.0000   907098    4.74%
   1993   165      199.0000   373      190.0000      199.0000   923241    4.74%
Elapsed time = 412.09 sec. (406512.00 ticks, tree = 1.42 MB, solutions = 8)
   2009   169      196.0000   355      190.0000      199.0000   939587    4.74%
   2017   173      199.0000   301      190.0000      199.0000   958143    4.74%
   2032   179      197.0000   297      190.0000      199.0000   974996    4.74%
   2045   186      197.0000   355      190.0000      199.0000   991712    4.74%
   2055   196      197.0000   444      190.0000      199.0000  1005618    4.74%
   2064   203        cutoff            190.0000      199.0000  1022784    4.74%
   2070   204        cutoff            190.0000      199.0000  1040109    4.74%
   2078   206      196.0000   322      190.0000      199.0000  1063438    4.74%
   2095   211      195.0000   279      190.0000      199.0000  1082494    4.74%
   2108   218      195.0000   228      190.0000      199.0000  1099754    4.74%
Elapsed time = 455.73 sec. (446474.36 ticks, tree = 1.52 MB, solutions = 8)
   2122   228      195.0000   261      190.0000      199.0000  1118878    4.74%
   2137   236      195.0000   189      190.0000      199.0000  1142394    4.74%
   2145   242      194.0000   148      190.0000      199.0000  1150968    4.74%
   2176   248      193.0000   150      190.0000      199.0000  1175273    4.74%
   2204   250      191.0000   129      190.0000      199.0000  1201110    4.74%
   2236   250    infeasible            190.0000      199.0000  1227239    4.74%
   2270   250    infeasible            190.0000      199.0000  1256887    4.74%
   2289   250      197.0000   364      190.0000      199.0000  1279770    4.74%
   2301   250      197.0000   460      190.0000      199.0000  1299114    4.74%
   2307   249        cutoff            190.0000      199.0000  1316065    4.74%
Elapsed time = 512.35 sec. (496269.03 ticks, tree = 1.58 MB, solutions = 8)
   2315   253      197.0000   458      190.0000      199.0000  1334690    4.74%
   2328   263      194.0000   235      190.0000      199.0000  1348836    4.74%
   2357   283      191.0000    42      190.0000      199.0000  1363366    4.74%
   2379   285      199.0000   249      190.0000      199.0000  1382940    4.74%
   2391   294      196.8571   277      190.0000      199.0000  1402411    4.74%
   2401   299      199.0000   170      190.0000      199.0000  1420037    4.74%
   2411   307      198.0000   280      190.0000      199.0000  1439835    4.74%
   2421   313      197.0000   284      190.0000      199.0000  1460424    4.74%
   2429   317      197.0000   397      190.0000      199.0000  1480922    4.74%
   2440   319      197.0000   415      190.0000      199.0000  1499221    4.74%
Elapsed time = 556.57 sec. (536828.58 ticks, tree = 1.73 MB, solutions = 8)
Starting limited solution polishing.
   2450   323      197.0000   300      190.0000      199.0000  1519059    4.74%
   2458   324      196.0000   244      190.0000      199.0000  1543768    4.74%
   2473   323    infeasible            190.0000      199.0000  1569923    4.74%
   2485   325    infeasible            190.0000      199.0000  1593677    4.74%
   2497   331      196.0000   190      190.0000      199.0000  1613117    4.74%
   2506   332      198.0000   284      190.0000      199.0000  1635288    4.74%
   2517   337      196.0000   282      190.0000      199.0000  1657070    4.74%
   2526   338      196.0000   251      190.0000      199.0000  1683488    4.74%
   2534   336    infeasible            190.0000      199.0000  1710186    4.74%

Clique cuts applied:  33
Cover cuts applied:  1
Mixed integer rounding cuts applied:  2
Zero-half cuts applied:  75
Gomory fractional cuts applied:  1

Root node processing (before b&c):
  Real time             =   31.60 sec. (36024.74 ticks)
Sequential b&c:
  Real time             =  568.41 sec. (540659.43 ticks)
                          ------------
Total (root+branch&cut) =  600.00 sec. (576684.17 ticks)
Primal:	190
Dual:	199
Status:	Feasible
Time:	600
Sequence:
	22
	9
	14
	10
	14
	8
	20
	1
	14
	6
	17
	4
	17
	7
	15
	10
	14
	6
	19
	5
	17
	6
	16
	8
	18
	2
	17
	8
	14
	10
	7
	15
	6
	12
	14
	6
	19
	2
	19
	7
	16
	6
	17
	4
	17
	9
	16
	6
	14
	6
	17
	5
	17
	8
	16
	6
	17
	5
	17
	6
	14
	10
	15
	6
	18
	4
	17
	6
	16
	8
	17
	3
	19
	6
	16
	8
	17
	4
	18
	6
	16
	8
	17
	5
	17
	6
	16
	8
	18
	4
	17
	6
	16
	7
	19
	2
	17
	8
	16
	9
	14
	10
	15
	6
	9
	14
	10
	8
	14
	11
	6
	14
	8
	12
	14
	6
	18
	4
	14
	6
	14
	7
	14
	8
	16
	6
	14
	6
	15
	12
	17
	0
	20
	8
	14
	8
	17
	3
	19
	6
	16
	6
	15
	10
	17
	1
	20
	8
	14
	10
	9
	14
	12
	14
	6
	14
	13
	15
	6
	10
	14
	0
	22
	8
	14
	10
	14
	8
	15
	7
	17
	2
	19
	8
	3
	17
	6
	14
	8
	0
	20
	6
	14
	10
	8
	14
	11
	15
	6
	22
